10453
1 1 1 1 1 1 1 1 1 1 
8 0 3 0 2 9 5 5 3 7 7 4 1 2 6 2 9 5 5 3 0 6 6 4 0 0 8 8 4 7 7 7 3 3 3 5 9 2 6 0 6 9 6 9 5 5 5 5 5 3 3 5 0 0 0 0 6 0 1 9 9 7 7 7 3 3 6 4 8 3 3 0 0 0 0 3 3 3 3 3 3 5 5 9 2 2 6 5 1 7 9 9 2 1 1 9 9 9 9 9 